Gurobi Optimizer version 9.1.2 build v9.1.2rc0 (linux64)
Thread count: 36 physical cores, 72 logical processors, using up to 32 threads
Optimize a model with 12 rows, 57 columns and 590 nonzeros
Model fingerprint: 0xf32eec78
Model has 47 quadratic constraints
Coefficient statistics:
  Matrix range     [2e-05, 3e+00]
  QMatrix range    [1e+00, 1e+00]
  QLMatrix range   [1e+00, 1e+00]
  Objective range  [8e-03, 7e-01]
  Bounds range     [1e+00, 1e+00]
  RHS range        [1e+00, 1e+00]
Presolve removed 9 rows and 0 columns

Continuous model is non-convex -- solving as a MIP.

Presolve removed 9 rows and 0 columns
Presolve time: 0.00s
Presolved: 189 rows, 57 columns, 443 nonzeros
Presolved model has 47 bilinear constraint(s)
Variable types: 57 continuous, 0 integer (0 binary)

Root relaxation: objective -1.743721e+00, 44 iterations, 0.00 seconds

    Nodes    |    Current Node    |     Objective Bounds      |     Work
 Expl Unexpl |  Obj  Depth IntInf | Incumbent    BestBd   Gap | It/Node Time

     0     0   -1.74372    0   38          -   -1.74372      -     -    0s
H    0     0                       0.6147548   -1.74372   384%     -    0s
     0     0   -1.64739    0    1    0.61475   -1.64739   368%     -    0s
H    0     0                      -1.6450460   -1.64739  0.14%     -    0s
     0     0     cutoff    0        -1.64505   -1.64505  0.00%     -    0s

Cutting planes:
  RLT: 25
  BQP: 3

Explored 1 nodes (76 simplex iterations) in 0.01 seconds
Thread count was 32 (of 72 available processors)

Solution count 2: -1.64505 0.614755 
No other solutions better than -1.64505

Optimal solution found (tolerance 1.00e-04)
Best objective -1.645045978473e+00, best bound -1.645045978473e+00, gap 0.0000%

User-callback calls 78, time in user-callback 0.00 sec
Gurobi Optimizer version 9.1.2 build v9.1.2rc0 (linux64)
Thread count: 36 physical cores, 72 logical processors, using up to 32 threads
Optimize a model with 24 rows, 125 columns and 2580 nonzeros
Model fingerprint: 0xf7a79094
Model has 105 quadratic constraints
Coefficient statistics:
  Matrix range     [7e-06, 5e+01]
  QMatrix range    [1e+00, 1e+00]
  QLMatrix range   [1e+00, 1e+00]
  Objective range  [2e-02, 1e+00]
  Bounds range     [1e+00, 1e+00]
  RHS range        [1e+00, 1e+00]
Presolve removed 10 rows and 0 columns

Continuous model is non-convex -- solving as a MIP.

Presolve removed 10 rows and 0 columns
Presolve time: 0.00s
Presolved: 429 rows, 125 columns, 2142 nonzeros
Presolved model has 105 bilinear constraint(s)
Variable types: 125 continuous, 0 integer (0 binary)

Root relaxation: objective -6.164565e+00, 132 iterations, 0.00 seconds

    Nodes    |    Current Node    |     Objective Bounds      |     Work
 Expl Unexpl |  Obj  Depth IntInf | Incumbent    BestBd   Gap | It/Node Time

     0     0   -6.16457    0   95          -   -6.16457      -     -    0s
H    0     0                      -0.0619320   -6.16457  9854%     -    0s
     0     0   -5.26213    0   83   -0.06193   -5.26213  8397%     -    0s
H    0     0                      -2.5606769   -5.26213   105%     -    0s
     0     0   -5.24275    0   83   -2.56068   -5.24275   105%     -    0s
     0     0   -4.95191    0   72   -2.56068   -4.95191  93.4%     -    0s
H    0     0                      -2.7163609   -4.95191  82.3%     -    0s
     0     0   -4.91060    0   72   -2.71636   -4.91060  80.8%     -    0s
     0     0   -4.87985    0   83   -2.71636   -4.87985  79.6%     -    0s
H    0     0                      -2.8199046   -4.87985  73.1%     -    0s
     0     0   -4.87841    0   83   -2.81990   -4.87841  73.0%     -    0s
     0     0   -4.86738    0   83   -2.81990   -4.86738  72.6%     -    0s
H    0     0                      -2.8937647   -4.86738  68.2%     -    0s
     0     0   -4.86647    0   83   -2.89376   -4.86647  68.2%     -    0s
     0     0   -4.86385    0   83   -2.89376   -4.86385  68.1%     -    0s
     0     0   -4.86385    0   83   -2.89376   -4.86385  68.1%     -    0s
     0     0   -4.86362    0   83   -2.89376   -4.86362  68.1%     -    0s
H    0     0                      -3.6882475   -4.86362  31.9%     -    0s
H    0     0                      -3.8455018   -4.86362  26.5%     -    0s
H    0     0                      -3.9103378   -4.86362  24.4%     -    0s
H    0     0                      -4.0549843   -4.86362  19.9%     -    0s
H    0     0                      -4.1136151   -4.86362  18.2%     -    0s
     0     2   -4.86362    0   83   -4.11362   -4.86362  18.2%     -    0s
*  430   123              17      -4.1508553   -4.49692  8.34%  31.5    0s
*  520   112              16      -4.1508848   -4.49692  8.34%  27.8    0s
*  559   197              22      -4.1647398   -4.49692  7.98%  26.2    0s
*  560   197              22      -4.1648925   -4.49692  7.97%  26.2    0s
*  886   142              18      -4.1649466   -4.35654  4.60%  19.6    0s
*  941   142              20      -4.1657221   -4.35654  4.58%  19.1    0s
* 1084   158              23      -4.1741281   -4.35654  4.37%  17.5    0s
* 1137   158              23      -4.1753071   -4.35654  4.34%  16.8    0s
* 1213   113              24      -4.1788657   -4.35195  4.14%  16.0    0s
* 1262   113              23      -4.1793886   -4.35195  4.13%  15.6    0s
* 1438    36              21      -4.1794356   -4.28502  2.53%  14.5    0s
* 1439    36              21      -4.1794619   -4.28502  2.53%  14.5    0s
* 1443    36              23      -4.1794737   -4.28502  2.53%  14.4    0s
* 1444    36              23      -4.1794738   -4.28502  2.53%  14.4    0s
* 1454    36              18      -4.1797356   -4.28502  2.52%  14.4    0s
* 1471    36              18      -4.1798273   -4.28502  2.52%  14.3    0s
* 1472    36              18      -4.1798277   -4.28502  2.52%  14.3    0s
* 1490    36              21      -4.1798804   -4.28502  2.52%  14.1    0s
* 1604     9              25      -4.1798951   -4.19246  0.30%  13.5    0s
* 1607     9              25      -4.1798956   -4.19246  0.30%  13.5    0s
* 1628     9              21      -4.1798993   -4.19246  0.30%  13.3    0s

Cutting planes:
  RLT: 57
  BQP: 7
  PSD: 45

Explored 1649 nodes (22106 simplex iterations) in 0.58 seconds
Thread count was 32 (of 72 available processors)

Solution count 10: -4.1799 -4.1799 -4.1799 ... -4.17944
No other solutions better than -4.1799

Optimal solution found (tolerance 1.00e-04)
Best objective -4.179899333390e+00, best bound -4.179899333390e+00, gap 0.0000%

User-callback calls 3590, time in user-callback 0.00 sec



objective value: -4.179899333389752
objective bound: -4.179899333389752
x_opt: [0.0, 0.0, 1.0, 0.0, 1.0, 0.672386531816093, 1.0, 1.0, 1.0, 0.0, 0.0, 0.1963466762749674, 0.0, 0.0, 0.005396042623491741, 0.49780998132001203, 0.0, 0.0, 0.0, 0.0]
GUROBI solution time: 0.5848278999328613




